4,2
7,0
9,9
12,8
15,8
18,7
21,7
24,7
27,6
27,8
27,8
27,8
27,8
27,8
27,8
27,8
27,8
27,8
27,8
27,8
27,8
27,8
27,8
27,8
27,8
27,8
27,8
27,8
27,8
27,8
27,8
27,8
27,8
27,8
27,8
27,8
27,8
27,8
27,8
27,8
27,8
27,8
27,8
27,8
27,8
27,8
27,8
27,8
27,8
27,8
27,8
27,8
27,8
27,8
27,8
27,8
27,8
27,8
27,8
27,8
27,8
27,8
27,8
27,8
27,8
27,8
27,8
27,8
27,8
27,8
27,8
27,8
27,8
27,8
27,8
27,8
27,8
27,8
27,8
27,8
27,8
27,8
27,8
27,8
27,8
27,8
27,8
27,8
27,8
27,8
27,8
27,8
27,8
27,8
27,8
27,8
27,8
27,8
27,8
27,8
27,8
27,8
27,8
27,8
27,8
27,8
27,8
27,8
27,8
27,8
27,8
27,8
27,8
27,8
27,8
27,8
27,8
27,8
27,8
27,8
27,8
27,8
27,8
27,8
27,8
27,8
27,8
27,8
27,8
27,8
27,8
27,8
27,8
27,8
27,8
27,8
27,8
27,8
27,8
27,8
27,8
27,8
27,8
27,8
27,8
27,8
27,8
27,8
27,8
27,8
27,8
27,8
27,8
27,8
27,8
27,8
27,8
27,8
27,8
27,8
27,8
27,8
27,8
27,8
27,8
27,8
27,8
27,8
27,8
27,8
27,8
27,8
27,8
27,8
27,8
27,8
27,8
27,8
27,8
27,8
27,8
27,8
27,8
27,8
27,8
27,8
27,8
27,8
27,8
27,8
27,8
27,8
27,8
27,8
27,8
27,8
27,8
27,8
27,8
27,8
27,8
27,8
27,8
27,8
27,8
27,8
27,8
27,8
27,8
27,8
27,8
27,8
27,8
27,8
27,8
27,8
27,8
27,8
27,8
27,8
27,8
27,8
27,8
27,8
27,8
27,8
27,8
27,8
27,8
27,8
27,8
27,8
27,8
27,8
27,8
27,8
27,8
27,8
27,8
27,8
27,8
27,8
27,8
27,8
27,8
27,8
27,8
27,8
27,8
27,8
27,8
27,8
27,8
27,8
27,8
27,8
27,8
27,8
27,8
27,8
27,8
27,8
27,8
27,8
27,8
27,8
27,8
27,8
27,8
27,8
27,8
27,8
27,8
27,8
27,8
27,8
27,8
27,8
27,8
27,8
27,8
27,8
27,8
27,8
27,8
27,8
27,8
27,8
27,8
27,8
27,8
27,8
27,8
27,8
27,8
27,8
27,8
27,8
27,8
27,8
27,8
27,8
27,8
27,8
27,8
27,8
27,8
27,8
27,8
27,8
27,8
27,8
27,8
27,8
27,8
27,8
27,8
27,8
27,8
27,8
27,8
27,8
27,8
27,8
27,8
27,8
27,8
27,8
27,8
27,8
27,8
27,8
27,8
27,8
27,8
27,8
27,8
27,8
27,8
27,8
27,8
27,8
27,8
27,8
27,8
27,8
27,8
27,8
27,8
27,8
27,8
27,8
27,8
27,8
27,8
27,8
27,8
27,8
27,8
27,8
27,8
27,8
27,8
27,8
27,8
27,8
27,8
27,8
27,8
27,8
27,8
27,8
27,8
27,8
27,8
27,8
27,8
27,8
27,8
27,8
27,8
27,8
27,8
27,8
27,8
27,8
27,8
27,8
27,8
27,8
27,8
27,8
27,8
27,8
27,8
27,8
27,8
27,8
27,8
27,8
27,8
27,8
27,8
27,8
27,8
27,8
27,8
27,8
27,8
27,8
27,8
27,8
27,8
27,8
27,8
27,8
27,8
27,8
27,8
27,8
27,8
27,8
27,8
27,8
27,8
27,8
27,8
27,8
27,8
27,8
27,8
27,8
27,8
27,8
27,8
27,8
27,8
27,8
27,8
27,8
27,8
27,8
27,8
27,8
27,8
27,8
27,8
27,8
27,8
27,8
27,8
27,8
27,8
27,8
27,8
27,8
27,8
27,8
27,8
27,8
27,8
27,8
27,8
27,8
27,8
27,8
27,8
27,8
27,8
27,8
27,8
27,8
27,8
27,8
27,8
27,8
27,8
27,8
27,8
27,8
27,8
27,8
27,8
27,8
27,8
27,8
27,8
27,8
27,8
27,8
27,8
27,8
27,8
27,8
27,8
27,8
27,8
27,8
27,8
27,8
27,8
27,8
27,8
27,8
27,8
27,8
27,8
27,8
27,8
27,8
27,8
27,8
27,8
27,8
27,8
27,8
27,8
27,8
27,8
27,8
27,8
27,8
27,8
27,8
27,8
27,8
27,8
27,8
27,8
27,8
27,8
27,8
27,8
27,8
27,8
27,8
27,8
27,8
27,8
27,8
27,8
27,8
27,8
27,8
27,8
27,8
27,8
27,8
27,8
27,8
27,8
27,8
27,8
27,8
27,8
27,8
27,8
27,8
27,8
27,8
27,8
27,8
27,8
27,8
27,8
27,8
27,8
27,8
27,8
27,8
27,8
27,8
27,8
27,8
27,8
27,8
27,8
27,8
27,8
27,8
27,8
27,8
27,8
27,8
27,8
27,8
27,8
27,8
27,8
27,8
27,8
27,8
27,8
27,8
27,8
27,8
27,8
27,8
27,8
27,8
27,8
27,8
27,8
27,8
27,8
27,8
27,8
27,8
27,8
27,8
27,8
27,8
27,8
27,8
27,8
27,8
27,8
27,8
27,8
27,8
27,8
27,8
27,8
27,8
27,8
27,8
27,8
27,8
27,8
27,8
27,8
27,8
27,8
27,8
27,8
27,8
27,8
27,8
27,8
27,8
27,8
27,8
27,8
27,8
27,8
27,8
27,8
27,8
27,8
27,8
27,8
27,8
27,8
27,8
27,8
27,8
27,8
27,8
27,8
27,8
27,8
27,8
27,8
27,8
27,8
27,8
27,8
27,8
27,8
27,8
27,8
27,8
27,8
27,8
27,8
27,8
27,8
27,8
27,8
27,8
27,8
27,8
27,8
27,8
27,8
27,8
27,8
27,8
27,8
27,8
27,8
27,8
27,8
27,8
27,8
27,8
27,8
27,8
27,8
27,8
27,8
27,8
27,8
27,8
27,8
27,8
27,8
27,8
27,8
27,8
27,8
27,8
27,8
27,8
27,8
27,8
27,8
27,8
27,8
27,8
27,8
27,8
27,8
27,8
27,8
27,8
27,8
27,8
27,8
27,8
27,8
27,8
27,8
27,8
27,8
27,8
27,8
27,8
27,8
27,8
27,8
27,8
27,8
27,8
27,8
27,8
27,8
27,8
27,8
27,8
27,8
27,8
27,8
27,8
27,8
27,8
27,8
27,8
27,8
27,8
27,8
27,8
27,8
27,8
27,8
27,8
27,8
27,8
27,8
27,8
27,8
27,8
27,8
27,8
27,8
27,8
27,8
27,8
27,8
27,8
27,8
27,8
27,8
27,8
27,8
27,8
27,8
27,8
27,8
27,8
27,8
27,8
27,8
27,8
27,8
27,8
27,8
27,8
27,8
27,8
27,8
27,8
27,8
27,8
27,8
27,8
27,8
27,8
27,8
27,8
27,8
27,8
27,8
27,8
27,8
27,8
27,8
27,8
27,8
27,8
27,8
27,8
27,8
27,8
27,8
27,8
27,8
27,8
27,8
27,8
27,8
27,8
27,8
27,8
27,8
27,8
27,8
27,8
27,8
27,8
27,8
27,8
27,8
27,8
27,8
27,8
27,8
27,8
27,8
27,8
27,8
27,8
27,8
27,8
27,8
27,8
27,8
27,8
27,8
27,8
27,8
27,8
27,8
27,8
27,8
27,8
27,8
27,8
27,8
27,8
27,8
27,8
27,8
27,8
27,8
27,8
27,8
27,8
27,8
27,8
27,8
27,8
27,8
27,8
27,8
27,8
27,8
27,8
27,8
27,8
27,8
27,8
27,8
27,8
27,8
27,8
27,8
27,8
27,8
27,8
27,8
27,8
27,8
27,8
27,8
27,8
27,8
27,8
27,8
27,8
27,8
27,8
27,8
27,8
27,8
27,8
27,8
27,8
27,8
27,8
27,8
27,8
27,8
27,8
27,8
27,8
27,8
27,8
27,8
27,8
27,8
27,8
27,8
27,8
27,8
27,8
27,8
27,8
27,8
27,8
27,8
27,8
27,8
27,8
27,8
27,8
27,8
27,8
27,8
27,8
27,8
27,8
27,8
27,8
27,8
27,8
27,8
27,8
27,8
27,8
27,8
27,8
27,8
27,8
27,8
27,8
27,8
27,8
27,8
27,8
27,8
27,8
27,8
27,8
27,8
0,0
0,0
